DIMENSION: 130
9
52
75
74
99
73
92
91
72
58
49
53
120
42
44
51
60
6
102
55
122
40
47
93
37
22
23
14
10
96
67
13
33
21
121
78
66
85
125
90
59
30
126
114
83
115
28
112
62
105
5
11
109
61
64
69
86
88
124
129
76
45
16
128
117
3
108
8
18
46
80
50
1
41
39
71
130
2
118
20
35
54
4
106
38
79
116
100
34
17
31
27
19
104
127
107
43
70
97
26
7
63
68
48
25
32
119
84
36
113
98
110
89
94
15
29
24
95
87
12
81
77
103
65
56
111
123
101
82
57
